NAME : tsp_384_sol.txt
COMMENT : OR-Tools Guided Local Search
TYPE : TOUR
DIMENSION : 50
COST : 5523
STATUS : ROUTING_SUCCESS
GAP : 0.00% (Reference Solution)
TOUR_SECTION
1
8
31
37
17
9
35
26
39
22
42
23
38
5
6
7
12
48
43
2
36
49
33
13
16
46
25
45
18
15
47
28
40
21
20
44
24
32
11
19
50
27
3
41
34
10
4
29
14
30
-1
